(set-logic QF_NRA)
(set-info :source |Benchmarks generated from hycomp (https://es-static.fbk.eu/tools/hycomp/). BMC instances of non-linear hybrid automata taken from: Alessandro Cimatti, Sergio Mover, Stefano Tonetta, A quantifier-free SMT encoding of non-linear hybrid automata, FMCAD 2012 and Alessandro Cimatti, Sergio Mover, Stefano Tonetta, Quantier-free encoding of invariants for Hybrid Systems, Formal Methods in System Design. This instance solves a BMC problem of depth 1 and uses the quantifier free encoding encoding. Contacts: Sergio Mover (mover@fbk.eu), Stefano Tonetta (tonettas@fbk.eu), Alessandro Cimatti (cimatti@fbk.eu).|)
(set-info :smt-lib-version 2.0)
(set-info :category "industrial")
(set-info :status unsat)
;; MathSAT API call trace
;; generated on Mon Mar 19 10:47:46 2012
(declare-fun b.event_is_timed__AT1 () Bool)
(declare-fun b.time__AT0 () Real)
(declare-fun b.speed_y__AT1 () Real)
(declare-fun b.y__AT0 () Real)
(declare-fun b.counter.0__AT0 () Bool)
(declare-fun b.counter.1__AT0 () Bool)
(declare-fun b.time__AT1 () Real)
(declare-fun b.bool_atom__AT0 () Bool)
(declare-fun b.counter.2__AT0 () Bool)
(declare-fun b.delta__AT1 () Real)
(declare-fun b.EVENT.0__AT1 () Bool)
(declare-fun b.delta__AT0 () Real)
(declare-fun b.speed_x__AT1 () Real)
(declare-fun b.EVENT.0__AT0 () Bool)
(declare-fun b.x__AT1 () Real)
(declare-fun b.counter.0__AT1 () Bool)
(declare-fun b.EVENT.1__AT0 () Bool)
(declare-fun b.counter.1__AT1 () Bool)
(declare-fun b.counter.2__AT1 () Bool)
(declare-fun b.counter.3__AT1 () Bool)
(declare-fun b.bool_atom__AT1 () Bool)
(declare-fun b.EVENT.1__AT1 () Bool)
(declare-fun b.speed_loss__AT0 () Real)
(declare-fun b.counter.3__AT0 () Bool)
(declare-fun b.y__AT1 () Real)
(declare-fun b.x__AT0 () Real)
(declare-fun b.speed_y__AT0 () Real)
(declare-fun b.event_is_timed__AT0 () Bool)
(declare-fun b.speed_x__AT0 () Real)
(assert (let ((.def_345 (* (- 1.0) b.speed_x__AT1)))
(let ((.def_346 (* b.speed_x__AT1 .def_345)))
(let ((.def_347 (* (- 1.0) .def_346)))
(let ((.def_378 (* 2.0 .def_347)))
(let ((.def_396 (* (- 1.0) .def_378)))
(let ((.def_397 (* b.delta__AT1 .def_396)))
(let ((.def_398 (* (- 5.0) .def_397)))
(let ((.def_288 (* (- 1.0) b.x__AT1)))
(let ((.def_358 (* b.speed_x__AT1 .def_288)))
(let ((.def_383 (* (- 5.0) .def_358)))
(let ((.def_403 (+ .def_383 .def_398)))
(let ((.def_353 (* b.x__AT1 .def_345)))
(let ((.def_381 (* (- 5.0) .def_353)))
(let ((.def_404 (+ .def_381 .def_403)))
(let ((.def_385 (* (- 49.0) b.delta__AT1)))
(let ((.def_405 (+ .def_385 .def_404)))
(let ((.def_387 (* 5.0 b.speed_y__AT1)))
(let ((.def_406 (+ .def_387 .def_405)))
(let ((.def_407 (<= .def_406 0.0 )))
(let ((.def_359 (* (- 1.0) .def_358)))
(let ((.def_354 (* (- 1.0) .def_353)))
(let ((.def_375 (+ .def_354 .def_359)))
(let ((.def_376 (+ b.speed_y__AT1 .def_375)))
(let ((.def_395 (<= .def_376 0.0 )))
(let ((.def_408 (and .def_395 .def_407)))
(let ((.def_379 (* b.delta__AT1 .def_378)))
(let ((.def_380 (* 5.0 .def_379)))
(let ((.def_389 (+ .def_383 .def_380)))
(let ((.def_390 (+ .def_381 .def_389)))
(let ((.def_391 (+ .def_385 .def_390)))
(let ((.def_392 (+ .def_387 .def_391)))
(let ((.def_393 (<= 0.0 .def_392)))
(let ((.def_377 (<= 0.0 .def_376)))
(let ((.def_394 (and .def_377 .def_393)))
(let ((.def_409 (or .def_394 .def_408)))
(let ((.def_360 (* b.delta__AT1 .def_359)))
(let ((.def_361 (* 10.0 .def_360)))
(let ((.def_355 (* b.delta__AT1 .def_354)))
(let ((.def_356 (* 10.0 .def_355)))
(let ((.def_367 (+ .def_356 .def_361)))
(let ((.def_344 (* b.delta__AT1 b.delta__AT1)))
(let ((.def_348 (* .def_344 .def_347)))
(let ((.def_349 (* 10.0 .def_348)))
(let ((.def_368 (+ .def_349 .def_367)))
(let ((.def_351 (* (- 49.0) .def_344)))
(let ((.def_369 (+ .def_351 .def_368)))
(let ((.def_342 (* b.speed_y__AT1 b.delta__AT1)))
(let ((.def_343 (* 10.0 .def_342)))
(let ((.def_370 (+ .def_343 .def_369)))
(let ((.def_334 (* b.x__AT1 .def_288)))
(let ((.def_363 (* (- 10.0) .def_334)))
(let ((.def_371 (+ .def_363 .def_370)))
(let ((.def_365 (* 10.0 b.y__AT1)))
(let ((.def_372 (+ .def_365 .def_371)))
(let ((.def_373 (<= 0.0 .def_372)))
(let ((.def_335 (<= .def_334 b.y__AT1)))
(let ((.def_374 (and .def_335 .def_373)))
(let ((.def_410 (and .def_374 .def_409)))
(let ((.def_65 (<= b.speed_loss__AT0 (/ 1 2))))
(let ((.def_62 (<= (/ 1 10) b.speed_loss__AT0)))
(let ((.def_66 (and .def_62 .def_65)))
(let ((.def_411 (and .def_66 .def_410)))
(let ((.def_336 (and .def_66 .def_335)))
(let ((.def_331 (not b.EVENT.0__AT1)))
(let ((.def_329 (not b.EVENT.1__AT1)))
(let ((.def_332 (or .def_329 .def_331)))
(let ((.def_6 (not b.counter.0__AT1)))
(let ((.def_4 (not b.counter.1__AT1)))
(let ((.def_322 (or .def_4 .def_6)))
(let ((.def_326 (or b.counter.3__AT1 .def_322)))
(let ((.def_323 (or b.counter.2__AT1 .def_322)))
(let ((.def_9 (not b.counter.2__AT1)))
(let ((.def_321 (or .def_6 .def_9)))
(let ((.def_324 (and .def_321 .def_323)))
(let ((.def_253 (not b.counter.3__AT1)))
(let ((.def_325 (or .def_253 .def_324)))
(let ((.def_327 (and .def_325 .def_326)))
(let ((.def_333 (and .def_327 .def_332)))
(let ((.def_337 (and .def_333 .def_336)))
(let ((.def_316 (<= 0.0 b.delta__AT0)))
(let ((.def_53 (not b.EVENT.0__AT0)))
(let ((.def_51 (not b.EVENT.1__AT0)))
(let ((.def_148 (and .def_51 .def_53)))
(let ((.def_150 (not .def_148)))
(let ((.def_317 (or .def_150 .def_316)))
(let ((.def_318 (or b.EVENT.1__AT0 .def_317)))
(let ((.def_190 (= b.bool_atom__AT0 b.bool_atom__AT1)))
(let ((.def_185 (= b.counter.0__AT1 b.counter.0__AT0)))
(let ((.def_183 (= b.counter.1__AT1 b.counter.1__AT0)))
(let ((.def_181 (= b.counter.2__AT1 b.counter.2__AT0)))
(let ((.def_180 (= b.counter.3__AT0 b.counter.3__AT1)))
(let ((.def_182 (and .def_180 .def_181)))
(let ((.def_184 (and .def_182 .def_183)))
(let ((.def_186 (and .def_184 .def_185)))
(let ((.def_312 (and .def_186 .def_190)))
(let ((.def_313 (or .def_150 .def_312)))
(let ((.def_314 (or b.EVENT.1__AT0 .def_313)))
(let ((.def_301 (* (- 10.0) b.y__AT1)))
(let ((.def_74 (* b.delta__AT0 b.delta__AT0)))
(let ((.def_83 (* (- 49.0) .def_74)))
(let ((.def_304 (+ .def_83 .def_301)))
(let ((.def_72 (* b.speed_y__AT0 b.delta__AT0)))
(let ((.def_73 (* 10.0 .def_72)))
(let ((.def_305 (+ .def_73 .def_304)))
(let ((.def_98 (* 10.0 b.y__AT0)))
(let ((.def_306 (+ .def_98 .def_305)))
(let ((.def_307 (= .def_306 0.0 )))
(let ((.def_295 (* (- 5.0) b.speed_y__AT1)))
(let ((.def_120 (* (- 49.0) b.delta__AT0)))
(let ((.def_296 (+ .def_120 .def_295)))
(let ((.def_122 (* 5.0 b.speed_y__AT0)))
(let ((.def_297 (+ .def_122 .def_296)))
(let ((.def_298 (= .def_297 0.0 )))
(let ((.def_287 (* b.speed_x__AT0 b.delta__AT0)))
(let ((.def_291 (+ .def_288 .def_287)))
(let ((.def_292 (+ b.x__AT0 .def_291)))
(let ((.def_293 (= .def_292 0.0 )))
(let ((.def_174 (= b.speed_x__AT0 b.speed_x__AT1)))
(let ((.def_294 (and .def_174 .def_293)))
(let ((.def_299 (and .def_294 .def_298)))
(let ((.def_308 (and .def_299 .def_307)))
(let ((.def_309 (or .def_150 .def_308)))
(let ((.def_171 (= b.y__AT0 b.y__AT1)))
(let ((.def_168 (= b.x__AT0 b.x__AT1)))
(let ((.def_281 (and .def_168 .def_171)))
(let ((.def_282 (and .def_174 .def_281)))
(let ((.def_177 (= b.speed_y__AT0 b.speed_y__AT1)))
(let ((.def_283 (and .def_177 .def_282)))
(let ((.def_278 (= b.delta__AT0 0.0 )))
(let ((.def_279 (and .def_148 .def_278)))
(let ((.def_280 (not .def_279)))
(let ((.def_284 (or .def_280 .def_283)))
(let ((.def_285 (or b.EVENT.1__AT0 .def_284)))
(let ((.def_270 (and .def_174 .def_177)))
(let ((.def_271 (and .def_186 .def_270)))
(let ((.def_272 (or b.bool_atom__AT0 .def_271)))
(let ((.def_245 (or .def_6 b.counter.0__AT0)))
(let ((.def_34 (not b.counter.0__AT0)))
(let ((.def_244 (or b.counter.0__AT1 .def_34)))
(let ((.def_246 (and .def_244 .def_245)))
(let ((.def_247 (and .def_4 .def_246)))
(let ((.def_248 (or b.counter.1__AT0 .def_247)))
(let ((.def_32 (not b.counter.1__AT0)))
(let ((.def_243 (or b.counter.1__AT1 .def_32)))
(let ((.def_249 (and .def_243 .def_248)))
(let ((.def_261 (and .def_9 .def_249)))
(let ((.def_262 (or b.counter.2__AT0 .def_261)))
(let ((.def_256 (and .def_4 .def_34)))
(let ((.def_257 (or b.counter.1__AT0 .def_256)))
(let ((.def_258 (and .def_243 .def_257)))
(let ((.def_259 (and b.counter.2__AT1 .def_258)))
(let ((.def_37 (not b.counter.2__AT0)))
(let ((.def_260 (or .def_37 .def_259)))
(let ((.def_263 (and .def_260 .def_262)))
(let ((.def_264 (and b.counter.3__AT1 .def_263)))
(let ((.def_265 (or b.counter.3__AT0 .def_264)))
(let ((.def_250 (and b.counter.2__AT1 .def_249)))
(let ((.def_251 (or b.counter.2__AT0 .def_250)))
(let ((.def_239 (or b.counter.1__AT1 b.counter.1__AT0)))
(let ((.def_237 (and .def_4 b.counter.0__AT1)))
(let ((.def_238 (or .def_32 .def_237)))
(let ((.def_240 (and .def_238 .def_239)))
(let ((.def_241 (and .def_9 .def_240)))
(let ((.def_242 (or .def_37 .def_241)))
(let ((.def_252 (and .def_242 .def_251)))
(let ((.def_254 (and .def_252 .def_253)))
(let ((.def_40 (not b.counter.3__AT0)))
(let ((.def_255 (or .def_40 .def_254)))
(let ((.def_266 (and .def_255 .def_265)))
(let ((.def_228 (* b.speed_y__AT0 b.speed_y__AT0)))
(let ((.def_227 (* b.speed_x__AT0 b.speed_x__AT0)))
(let ((.def_229 (+ .def_227 .def_228)))
(let ((.def_209 (* (- 1.0) b.speed_loss__AT0)))
(let ((.def_210 (+ 1.0 .def_209)))
(let ((.def_226 (* .def_210 .def_210)))
(let ((.def_230 (* .def_226 .def_229)))
(let ((.def_232 (* (- 1.0) .def_230)))
(let ((.def_223 (* b.speed_y__AT1 b.speed_y__AT1)))
(let ((.def_233 (+ .def_223 .def_232)))
(let ((.def_221 (* b.speed_x__AT1 b.speed_x__AT1)))
(let ((.def_234 (+ .def_221 .def_233)))
(let ((.def_235 (= .def_234 0.0 )))
(let ((.def_214 (* b.speed_y__AT0 .def_210)))
(let ((.def_197 (* (- 2.0) b.x__AT0)))
(let ((.def_198 (* (- 1.0) .def_197)))
(let ((.def_211 (* .def_198 .def_210)))
(let ((.def_212 (* b.speed_x__AT0 .def_211)))
(let ((.def_217 (+ .def_212 .def_214)))
(let ((.def_206 (* (- 2.0) b.x__AT1)))
(let ((.def_207 (* (- 1.0) .def_206)))
(let ((.def_208 (* b.speed_x__AT1 .def_207)))
(let ((.def_218 (+ .def_208 .def_217)))
(let ((.def_219 (+ b.speed_y__AT1 .def_218)))
(let ((.def_220 (= .def_219 0.0 )))
(let ((.def_236 (and .def_220 .def_235)))
(let ((.def_267 (and .def_236 .def_266)))
(let ((.def_205 (not b.bool_atom__AT0)))
(let ((.def_268 (or .def_205 .def_267)))
(let ((.def_199 (* b.speed_x__AT0 .def_198)))
(let ((.def_200 (+ b.speed_y__AT0 .def_199)))
(let ((.def_201 (<= 0.0 .def_200)))
(let ((.def_202 (not .def_201)))
(let ((.def_57 (* (- 1.0) b.x__AT0)))
(let ((.def_58 (* b.x__AT0 .def_57)))
(let ((.def_195 (= b.y__AT0 .def_58)))
(let ((.def_203 (and .def_195 .def_202)))
(let ((.def_204 (= b.bool_atom__AT0 .def_203)))
(let ((.def_269 (and .def_204 .def_268)))
(let ((.def_273 (and .def_269 .def_272)))
(let ((.def_274 (and .def_168 .def_273)))
(let ((.def_275 (and .def_171 .def_274)))
(let ((.def_276 (or .def_148 .def_275)))
(let ((.def_277 (or b.EVENT.1__AT0 .def_276)))
(let ((.def_286 (and .def_277 .def_285)))
(let ((.def_310 (and .def_286 .def_309)))
(let ((.def_155 (= b.time__AT0 b.time__AT1)))
(let ((.def_169 (and .def_155 .def_168)))
(let ((.def_172 (and .def_169 .def_171)))
(let ((.def_175 (and .def_172 .def_174)))
(let ((.def_178 (and .def_175 .def_177)))
(let ((.def_187 (and .def_178 .def_186)))
(let ((.def_191 (and .def_187 .def_190)))
(let ((.def_192 (or .def_51 .def_191)))
(let ((.def_158 (* (- 1.0) b.time__AT1)))
(let ((.def_161 (+ b.delta__AT0 .def_158)))
(let ((.def_162 (+ b.time__AT0 .def_161)))
(let ((.def_163 (= .def_162 0.0 )))
(let ((.def_164 (or .def_150 .def_163)))
(let ((.def_165 (or b.EVENT.1__AT0 .def_164)))
(let ((.def_156 (or .def_148 .def_155)))
(let ((.def_157 (or b.EVENT.1__AT0 .def_156)))
(let ((.def_166 (and .def_157 .def_165)))
(let ((.def_193 (and .def_166 .def_192)))
(let ((.def_152 (= .def_150 b.event_is_timed__AT1)))
(let ((.def_149 (= b.event_is_timed__AT0 .def_148)))
(let ((.def_153 (and .def_149 .def_152)))
(let ((.def_194 (and .def_153 .def_193)))
(let ((.def_311 (and .def_194 .def_310)))
(let ((.def_315 (and .def_311 .def_314)))
(let ((.def_319 (and .def_315 .def_318)))
(let ((.def_320 (and .def_51 .def_319)))
(let ((.def_338 (and .def_320 .def_337)))
(let ((.def_35 (and .def_32 .def_34)))
(let ((.def_38 (and .def_35 .def_37)))
(let ((.def_339 (and .def_38 .def_338)))
(let ((.def_75 (* (- 1.0) b.speed_x__AT0)))
(let ((.def_76 (* b.speed_x__AT0 .def_75)))
(let ((.def_77 (* (- 1.0) .def_76)))
(let ((.def_111 (* 2.0 .def_77)))
(let ((.def_131 (* (- 1.0) .def_111)))
(let ((.def_132 (* b.delta__AT0 .def_131)))
(let ((.def_133 (* (- 5.0) .def_132)))
(let ((.def_90 (* b.speed_x__AT0 .def_57)))
(let ((.def_118 (* (- 5.0) .def_90)))
(let ((.def_138 (+ .def_118 .def_133)))
(let ((.def_85 (* b.x__AT0 .def_75)))
(let ((.def_116 (* (- 5.0) .def_85)))
(let ((.def_139 (+ .def_116 .def_138)))
(let ((.def_140 (+ .def_120 .def_139)))
(let ((.def_141 (+ .def_122 .def_140)))
(let ((.def_142 (<= .def_141 0.0 )))
(let ((.def_91 (* (- 1.0) .def_90)))
(let ((.def_86 (* (- 1.0) .def_85)))
(let ((.def_108 (+ .def_86 .def_91)))
(let ((.def_109 (+ b.speed_y__AT0 .def_108)))
(let ((.def_130 (<= .def_109 0.0 )))
(let ((.def_143 (and .def_130 .def_142)))
(let ((.def_112 (* b.delta__AT0 .def_111)))
(let ((.def_114 (* 5.0 .def_112)))
(let ((.def_124 (+ .def_118 .def_114)))
(let ((.def_125 (+ .def_116 .def_124)))
(let ((.def_126 (+ .def_120 .def_125)))
(let ((.def_127 (+ .def_122 .def_126)))
(let ((.def_128 (<= 0.0 .def_127)))
(let ((.def_110 (<= 0.0 .def_109)))
(let ((.def_129 (and .def_110 .def_128)))
(let ((.def_144 (or .def_129 .def_143)))
(let ((.def_92 (* b.delta__AT0 .def_91)))
(let ((.def_93 (* 10.0 .def_92)))
(let ((.def_87 (* b.delta__AT0 .def_86)))
(let ((.def_88 (* 10.0 .def_87)))
(let ((.def_100 (+ .def_88 .def_93)))
(let ((.def_78 (* .def_74 .def_77)))
(let ((.def_79 (* 10.0 .def_78)))
(let ((.def_101 (+ .def_79 .def_100)))
(let ((.def_102 (+ .def_83 .def_101)))
(let ((.def_103 (+ .def_73 .def_102)))
(let ((.def_96 (* (- 10.0) .def_58)))
(let ((.def_104 (+ .def_96 .def_103)))
(let ((.def_105 (+ .def_98 .def_104)))
(let ((.def_106 (<= 0.0 .def_105)))
(let ((.def_59 (<= .def_58 b.y__AT0)))
(let ((.def_107 (and .def_59 .def_106)))
(let ((.def_145 (and .def_107 .def_144)))
(let ((.def_146 (and .def_66 .def_145)))
(let ((.def_67 (and .def_59 .def_66)))
(let ((.def_54 (or .def_51 .def_53)))
(let ((.def_44 (or .def_32 .def_34)))
(let ((.def_48 (or b.counter.3__AT0 .def_44)))
(let ((.def_45 (or b.counter.2__AT0 .def_44)))
(let ((.def_43 (or .def_34 .def_37)))
(let ((.def_46 (and .def_43 .def_45)))
(let ((.def_47 (or .def_40 .def_46)))
(let ((.def_49 (and .def_47 .def_48)))
(let ((.def_55 (and .def_49 .def_54)))
(let ((.def_68 (and .def_55 .def_67)))
(let ((.def_41 (and .def_38 .def_40)))
(let ((.def_29 (= b.speed_y__AT0 1.0 )))
(let ((.def_26 (= b.speed_x__AT0 1.0 )))
(let ((.def_22 (= b.y__AT0 10.0 )))
(let ((.def_18 (= b.x__AT0 0.0 )))
(let ((.def_14 (= b.time__AT0 0.0 )))
(let ((.def_16 (and .def_14 b.event_is_timed__AT0)))
(let ((.def_19 (and .def_16 .def_18)))
(let ((.def_23 (and .def_19 .def_22)))
(let ((.def_27 (and .def_23 .def_26)))
(let ((.def_30 (and .def_27 .def_29)))
(let ((.def_42 (and .def_30 .def_41)))
(let ((.def_69 (and .def_42 .def_68)))
(let ((.def_7 (and .def_4 .def_6)))
(let ((.def_10 (and .def_7 .def_9)))
(let ((.def_11 (not .def_10)))
(let ((.def_70 (and .def_11 .def_69)))
(let ((.def_147 (and .def_70 .def_146)))
(let ((.def_340 (and .def_147 .def_339)))
(let ((.def_412 (and .def_340 .def_411)))
.def_412)))))))))))))))))))))))))))))))))))))))))))))))))))))))))))))))))))))))))))))))))))))))))))))))))))))))))))))))))))))))))))))))))))))))))))))))))))))))))))))))))))))))))))))))))))))))))))))))))))))))))))))))))))))))))))))))))))))))))))))))))))))))))))))))))))))))))))))))))))))))))))))))))))))))))))))))))))))))))))))))))))))))
(check-sat)
(exit)
